
Gurobi 9.1.1 (win64) logging started Sat Apr 16 18:33:01 2022

Changed value of parameter LogFile to ./Log/Pattern_Appro_solver_200_order_20_batch.log
   Prev:   Default: 
Gurobi Optimizer version 9.1.1 build v9.1.1rc0 (win64)
Thread count: 6 physical cores, 12 logical processors, using up to 12 threads
Optimize a model with 1059 rows, 2540 columns and 6480 nonzeros
Model fingerprint: 0xd7918d96
Variable types: 0 continuous, 2540 integer (1860 binary)
Coefficient statistics:
  Matrix range     [1e+00, 1e+01]
  Objective range  [1e+00, 4e+01]
  Bounds range     [1e+00, 1e+01]
  RHS range        [1e+00, 1e+01]
Found heuristic solution: objective 1793.0000000
Presolve removed 228 rows and 356 columns
Presolve time: 0.01s
Presolved: 831 rows, 2184 columns, 5624 nonzeros
Variable types: 0 continuous, 2184 integer (1518 binary)

Root relaxation: objective 7.238222e+02, 1405 iterations, 0.01 seconds

    Nodes    |    Current Node    |     Objective Bounds      |     Work
 Expl Unexpl |  Obj  Depth IntInf | Incumbent    BestBd   Gap | It/Node Time

     0     0  723.82222    0   52 1793.00000  723.82222  59.6%     -    0s
H    0     0                    1214.0000000  723.82222  40.4%     -    0s
H    0     0                    1212.0000000  723.82222  40.3%     -    0s
H    0     0                    1197.0000000  723.82222  39.5%     -    0s
H    0     0                    1140.0000000  723.82222  36.5%     -    0s
H    0     0                    1117.0000000  723.82222  35.2%     -    0s
     0     0  739.42635    0  157 1117.00000  739.42635  33.8%     -    0s
H    0     0                    1027.0000000  739.42635  28.0%     -    0s
     0     0  739.96298    0  143 1027.00000  739.96298  27.9%     -    0s
     0     0  757.49963    0  189 1027.00000  757.49963  26.2%     -    0s
     0     0  764.12274    0  215 1027.00000  764.12274  25.6%     -    0s
     0     0  774.54130    0  184 1027.00000  774.54130  24.6%     -    0s
     0     0  775.31456    0  201 1027.00000  775.31456  24.5%     -    0s
     0     0  776.03413    0  197 1027.00000  776.03413  24.4%     -    0s
     0     0  776.03413    0  200 1027.00000  776.03413  24.4%     -    0s
     0     0  781.59110    0  248 1027.00000  781.59110  23.9%     -    0s
     0     0  782.32164    0  219 1027.00000  782.32164  23.8%     -    0s
     0     0  782.70953    0  215 1027.00000  782.70953  23.8%     -    0s
     0     0  783.46719    0  192 1027.00000  783.46719  23.7%     -    0s
     0     0  783.57961    0  197 1027.00000  783.57961  23.7%     -    0s
     0     0  783.59766    0  198 1027.00000  783.59766  23.7%     -    0s
     0     0  784.42481    0  237 1027.00000  784.42481  23.6%     -    0s
H    0     0                    1019.0000000  784.42481  23.0%     -    0s
     0     0  784.76579    0  277 1019.00000  784.76579  23.0%     -    0s
     0     0  784.91806    0  291 1019.00000  784.91806  23.0%     -    0s
     0     0  784.92925    0  299 1019.00000  784.92925  23.0%     -    0s
     0     0  785.81980    0  272 1019.00000  785.81980  22.9%     -    0s
     0     0  786.16798    0  286 1019.00000  786.16798  22.8%     -    0s
     0     0  786.18210    0  289 1019.00000  786.18210  22.8%     -    0s
     0     0  786.81512    0  282 1019.00000  786.81512  22.8%     -    0s
     0     0  786.90829    0  303 1019.00000  786.90829  22.8%     -    0s
     0     0  786.97735    0  324 1019.00000  786.97735  22.8%     -    0s
     0     0  787.28944    0  331 1019.00000  787.28944  22.7%     -    0s
     0     0  787.28944    0  306 1019.00000  787.28944  22.7%     -    0s
H    0     0                     974.0000000  787.30423  19.2%     -    0s
     0     2  787.30423    0  302  974.00000  787.30423  19.2%     -    0s
H   31    38                     969.0000000  789.55141  18.5%   547    1s
H   35    38                     967.0000000  789.55141  18.4%   521    1s
H   68    76                     959.0000000  789.55141  17.7%   488    1s
H  154   169                     957.0000000  789.55141  17.5%   402    2s
H  165   169                     943.0000000  789.55141  16.3%   385    2s
H  206   227                     936.0000000  789.55141  15.6%   330    2s
H  276   281                     934.0000000  789.55141  15.5%   256    2s
  1539  1475  811.31579   21  299  934.00000  789.78141  15.4%  88.6    5s
H 1552  1409                     930.0000000  795.01922  14.5%  87.8    6s
H 1571  1349                     923.0000000  806.39349  12.6%  86.8    9s
  1575  1352  861.76188  167  925  923.00000  806.84947  12.6%  86.5   10s
  1607  1375  890.88642  128  876  923.00000  807.51414  12.5%  97.9   15s
  1628  1389  856.84286  121  940  923.00000  807.85622  12.5%  96.6   22s
  1643  1412  809.71843   28  810  923.00000  809.02743  12.3%   123   25s
H 1760  1411                     916.0000000  809.10742  11.7%   164   28s
H 1815  1394                     909.0000000  809.10742  11.0%   172   29s
  1836  1414  813.62849   35  693  909.00000  809.10742  11.0%   173   30s
  2069  1584  837.48394   44  525  909.00000  809.10742  11.0%   200   35s
  2640  1858  863.57354   64  381  909.00000  809.10742  11.0%   232   40s
  3306  2326  881.23915   94  257  909.00000  809.10742  11.0%   246   45s
  4045  2524  813.11690   33  828  909.00000  810.19217  10.9%   237   50s
  4646  2938  817.34647   31  824  909.00000  813.11986  10.5%   252   55s
  5381  3371  830.45690   39  563  909.00000  813.18492  10.5%   254   60s

Cutting planes:
  Gomory: 58
  Cover: 152
  Implied bound: 2
  Projected implied bound: 5
  Clique: 34
  MIR: 29
  StrongCG: 9
  Flow cover: 70
  GUB cover: 1
  Zero half: 24
  Network: 1
  RLT: 56
  Relax-and-lift: 3
  BQP: 1

Explored 5625 nodes (1414245 simplex iterations) in 60.02 seconds
Thread count was 12 (of 12 available processors)

Solution count 10: 909 916 923 ... 967

Time limit reached
Best objective 9.090000000000e+02, best bound 8.140000000000e+02, gap 10.4510%

Gurobi 9.1.1 (win64) logging started Sat Apr 16 20:38:56 2022

Changed value of parameter LogFile to ./Log/Pattern_Appro_solver_200_order_20_batch.log
   Prev:   Default: 
Gurobi Optimizer version 9.1.1 build v9.1.1rc0 (win64)
Thread count: 6 physical cores, 12 logical processors, using up to 12 threads
Optimize a model with 1121 rows, 3780 columns and 13260 nonzeros
Model fingerprint: 0xbddf7861
Variable types: 0 continuous, 3780 integer (3240 binary)
Coefficient statistics:
  Matrix range     [1e+00, 1e+01]
  Objective range  [1e+00, 4e+01]
  Bounds range     [1e+00, 6e+00]
  RHS range        [1e+00, 1e+01]
Found heuristic solution: objective 3554.0000000
Presolve removed 143 rows and 397 columns
Presolve time: 0.02s
Presolved: 978 rows, 3383 columns, 11316 nonzeros
Variable types: 0 continuous, 3383 integer (2888 binary)

Root relaxation: objective 9.774452e+02, 4288 iterations, 0.07 seconds

    Nodes    |    Current Node    |     Objective Bounds      |     Work
 Expl Unexpl |  Obj  Depth IntInf | Incumbent    BestBd   Gap | It/Node Time

     0     0  977.44524    0  150 3554.00000  977.44524  72.5%     -    0s
H    0     0                    2418.0000000  977.44524  59.6%     -    0s
H    0     0                    2400.0000000  977.44524  59.3%     -    0s
H    0     0                    2388.0000000  977.44524  59.1%     -    0s
H    0     0                    2272.0000000  977.44524  57.0%     -    0s
H    0     0                    2214.0000000  977.44524  55.9%     -    0s
H    0     0                    2136.0000000  977.44524  54.2%     -    0s
     0     0 1012.62507    0  265 2136.00000 1012.62507  52.6%     -    0s
H    0     0                    2060.0000000 1012.62507  50.8%     -    0s
     0     0 1013.57541    0  276 2060.00000 1013.57541  50.8%     -    0s
     0     0 1013.57541    0  277 2060.00000 1013.57541  50.8%     -    0s
     0     0 1042.41880    0  386 2060.00000 1042.41880  49.4%     -    0s
H    0     0                    2049.0000000 1042.41880  49.1%     -    0s
H    0     0                    2043.0000000 1042.41880  49.0%     -    0s
     0     0 1045.09970    0  438 2043.00000 1045.09970  48.8%     -    0s
     0     0 1045.38999    0  449 2043.00000 1045.38999  48.8%     -    0s
     0     0 1045.40725    0  453 2043.00000 1045.40725  48.8%     -    0s
H    0     0                    2033.0000000 1045.40725  48.6%     -    0s
     0     0 1060.60738    0  566 2033.00000 1060.60738  47.8%     -    0s
H    0     0                    2008.0000000 1060.60738  47.2%     -    0s
H    0     0                    1985.0000000 1060.60738  46.6%     -    0s
H    0     0                    1972.0000000 1060.60738  46.2%     -    0s
H    0     0                    1965.0000000 1060.60738  46.0%     -    0s
     0     0 1063.91800    0  600 1965.00000 1063.91800  45.9%     -    0s
H    0     0                    1950.0000000 1063.91800  45.4%     -    1s
     0     0 1064.63248    0  583 1950.00000 1064.63248  45.4%     -    1s
     0     0 1064.78126    0  556 1950.00000 1064.78126  45.4%     -    1s
     0     0 1064.91543    0  581 1950.00000 1064.91543  45.4%     -    1s
     0     0 1064.94881    0  594 1950.00000 1064.94881  45.4%     -    1s
H    0     0                    1935.0000000 1064.94881  45.0%     -    1s
     0     0 1070.25639    0  711 1935.00000 1070.25639  44.7%     -    1s
H    0     0                    1918.0000000 1070.25639  44.2%     -    1s
     0     0 1074.65003    0  756 1918.00000 1074.65003  44.0%     -    1s
     0     0 1075.85759    0  778 1918.00000 1075.85759  43.9%     -    1s
     0     0 1076.23639    0  805 1918.00000 1076.23639  43.9%     -    2s
     0     0 1076.34728    0  767 1918.00000 1076.34728  43.9%     -    2s
     0     0 1076.40126    0  811 1918.00000 1076.40126  43.9%     -    2s
H    0     0                    1910.0000000 1076.40126  43.6%     -    2s
H    0     0                    1894.0000000 1076.40126  43.2%     -    2s
     0     0 1081.04129    0  905 1894.00000 1081.04129  42.9%     -    2s
H    0     0                    1886.0000000 1081.04129  42.7%     -    2s
     0     0 1083.19023    0  906 1886.00000 1083.19023  42.6%     -    3s
H    0     0                    1882.0000000 1083.19023  42.4%     -    3s
     0     0 1083.97051    0  940 1882.00000 1083.97051  42.4%     -    3s
     0     0 1084.24107    0  975 1882.00000 1084.24107  42.4%     -    3s
H    0     0                    1879.0000000 1084.24107  42.3%     -    3s
H    0     0                    1873.0000000 1084.24107  42.1%     -    3s
     0     0 1084.38484    0 1027 1873.00000 1084.38484  42.1%     -    3s
H    0     0                    1868.0000000 1084.38484  41.9%     -    4s
H    0     0                    1864.0000000 1084.38484  41.8%     -    4s
     0     0 1088.72602    0 1079 1864.00000 1088.72602  41.6%     -    4s
H    0     0                    1850.0000000 1088.72602  41.1%     -    5s
     0     0 1091.23631    0 1331 1850.00000 1091.23631  41.0%     -    5s
     0     0 1092.22872    0 1189 1850.00000 1092.22872  41.0%     -    5s
H    0     0                    1832.0000000 1092.22872  40.4%     -    5s
H    0     0                    1831.0000000 1092.22872  40.3%     -    5s
     0     0 1092.75241    0 1316 1831.00000 1092.75241  40.3%     -    5s
     0     0 1092.97960    0 1363 1831.00000 1092.97960  40.3%     -    6s
H    0     0                    1830.0000000 1092.97960  40.3%     -    6s
     0     0 1093.10563    0 1296 1830.00000 1093.10563  40.3%     -    6s
H    0     0                    1829.0000000 1093.10563  40.2%     -    7s
H    0     0                    1824.0000000 1093.10563  40.1%     -    7s
     0     0 1097.16291    0 1490 1824.00000 1097.16291  39.8%     -    7s
H    0     0                    1822.0000000 1097.16291  39.8%     -    8s
H    0     0                    1808.0000000 1097.16291  39.3%     -    8s
     0     0 1102.97714    0 1551 1808.00000 1102.97714  39.0%     -    8s
     0     0 1104.32688    0 1685 1808.00000 1104.32688  38.9%     -    9s
     0     0 1105.01238    0 1703 1808.00000 1105.01238  38.9%     -   10s
     0     0 1105.49944    0 1715 1808.00000 1105.49944  38.9%     -   10s
H    0     0                    1806.0000000 1105.49944  38.8%     -   11s
     0     0 1105.70472    0 1746 1806.00000 1105.70472  38.8%     -   11s
     0     0 1109.55594    0 1858 1806.00000 1109.55594  38.6%     -   13s
H    0     0                    1804.0000000 1109.55594  38.5%     -   14s
     0     0 1111.00237    0 2037 1804.00000 1111.00237  38.4%     -   14s
     0     0 1112.45841    0 2051 1804.00000 1112.45841  38.3%     -   15s
     0     0 1113.12246    0 2131 1804.00000 1113.12246  38.3%     -   16s
     0     0 1113.68743    0 2170 1804.00000 1113.68743  38.3%     -   17s
     0     0 1113.90670    0 2165 1804.00000 1113.90670  38.3%     -   17s
H    0     0                    1803.0000000 1113.90670  38.2%     -   19s
H    0     0                    1802.0000000 1113.90670  38.2%     -   19s
     0     0 1119.66848    0 2225 1802.00000 1119.66848  37.9%     -   19s
H    0     0                    1798.0000000 1119.66848  37.7%     -   21s
     0     0 1124.66816    0 2333 1798.00000 1124.66816  37.4%     -   21s
     0     0 1127.58458    0 2428 1798.00000 1127.58458  37.3%     -   23s
     0     0 1128.97766    0 2498 1798.00000 1128.97766  37.2%     -   24s
     0     0 1129.80853    0 2563 1798.00000 1129.80853  37.2%     -   25s
     0     0 1130.29921    0 2582 1798.00000 1130.29921  37.1%     -   26s
     0     0 1130.68478    0 2597 1798.00000 1130.68478  37.1%     -   26s
     0     0 1130.77666    0 2608 1798.00000 1130.77666  37.1%     -   27s
     0     0 1135.58856    0 2621 1798.00000 1135.58856  36.8%     -   29s
     0     0 1137.94539    0 2681 1798.00000 1137.94539  36.7%     -   32s
     0     0 1139.04674    0 2690 1798.00000 1139.04674  36.6%     -   33s
     0     0 1139.58647    0 2714 1798.00000 1139.58647  36.6%     -   34s
     0     0 1139.90734    0 2759 1798.00000 1139.90734  36.6%     -   34s
     0     0 1140.66830    0 2805 1798.00000 1140.66830  36.6%     -   36s
     0     0 1141.01438    0 2816 1798.00000 1141.01438  36.5%     -   36s
     0     0 1141.37461    0 2866 1798.00000 1141.37461  36.5%     -   37s
     0     0 1141.37461    0 2858 1798.00000 1141.37461  36.5%     -   37s
H    0     0                    1786.0000000 1141.37461  36.1%     -   39s
     0     2 1141.37461    0 2854 1786.00000 1141.37461  36.1%     -   39s
     1     4 1141.72410    1 2802 1786.00000 1141.48850  36.1%   935   42s
     3     8 1143.99602    2 2823 1786.00000 1141.72736  36.1%  4423   49s
     7    13 1145.13629    3 2737 1786.00000 1143.99617  35.9%  7382   60s

Cutting planes:
  Gomory: 90
  Cover: 2577
  Implied bound: 247
  Clique: 654
  MIR: 121
  StrongCG: 8
  Flow cover: 172
  GUB cover: 1
  Zero half: 42
  Mod-K: 3
  Relax-and-lift: 44

Explored 12 nodes (177705 simplex iterations) in 60.02 seconds
Thread count was 12 (of 12 available processors)

Solution count 10: 1786 1798 1802 ... 1829

Time limit reached
Best objective 1.786000000000e+03, best bound 1.144000000000e+03, gap 35.9462%

Gurobi 9.1.1 (win64) logging started Sat Apr 16 21:04:38 2022

Changed value of parameter LogFile to ./Log/Pattern_Appro_solver_200_order_20_batch.log
   Prev:   Default: 
Gurobi Optimizer version 9.1.1 build v9.1.1rc0 (win64)
Thread count: 6 physical cores, 12 logical processors, using up to 12 threads
Optimize a model with 1112 rows, 3600 columns and 12680 nonzeros
Model fingerprint: 0x84d58f16
Variable types: 0 continuous, 3600 integer (3040 binary)
Coefficient statistics:
  Matrix range     [1e+00, 1e+01]
  Objective range  [1e+00, 4e+01]
  Bounds range     [1e+00, 1e+01]
  RHS range        [1e+00, 1e+01]
Found heuristic solution: objective 3696.0000000
Presolve removed 243 rows and 425 columns
Presolve time: 0.02s
Presolved: 869 rows, 3175 columns, 11179 nonzeros
Variable types: 0 continuous, 3175 integer (2701 binary)

Root relaxation: objective 8.805556e+02, 3673 iterations, 0.06 seconds

    Nodes    |    Current Node    |     Objective Bounds      |     Work
 Expl Unexpl |  Obj  Depth IntInf | Incumbent    BestBd   Gap | It/Node Time

     0     0  880.55556    0  157 3696.00000  880.55556  76.2%     -    0s
H    0     0                    2546.0000000  880.55556  65.4%     -    0s
H    0     0                    2524.0000000  880.55556  65.1%     -    0s
H    0     0                    2433.0000000  880.55556  63.8%     -    0s
H    0     0                    2405.0000000  880.55556  63.4%     -    0s
H    0     0                    2293.0000000  882.88889  61.5%     -    0s
H    0     0                    2210.0000000  882.88889  60.1%     -    0s
H    0     0                    2146.0000000  882.88889  58.9%     -    0s
     0     0  914.95446    0  282 2146.00000  914.95446  57.4%     -    0s
H    0     0                    2083.0000000  914.95446  56.1%     -    0s
     0     0  915.91053    0  303 2083.00000  915.91053  56.0%     -    0s
     0     0  915.91053    0  290 2083.00000  915.91053  56.0%     -    0s
     0     0  915.92203    0  293 2083.00000  915.92203  56.0%     -    0s
     0     0  915.92437    0  299 2083.00000  915.92437  56.0%     -    0s
H    0     0                    2055.0000000  915.92437  55.4%     -    0s
H    0     0                    2038.0000000  915.92437  55.1%     -    0s
     0     0  942.38252    0  422 2038.00000  942.38252  53.8%     -    0s
H    0     0                    2017.0000000  942.38252  53.3%     -    0s
     0     0  947.62246    0  492 2017.00000  947.62246  53.0%     -    0s
H    0     0                    2011.0000000  947.62246  52.9%     -    0s
     0     0  948.20530    0  480 2011.00000  948.20530  52.8%     -    0s
     0     0  948.25319    0  490 2011.00000  948.25319  52.8%     -    0s
H    0     0                    1989.0000000  948.25319  52.3%     -    0s
H    0     0                    1981.0000000  948.25319  52.1%     -    0s
H    0     0                    1978.0000000  948.25319  52.1%     -    0s
     0     0  962.57646    0  643 1978.00000  962.57646  51.3%     -    0s
H    0     0                    1958.0000000  962.57646  50.8%     -    0s
     0     0  968.11323    0  690 1958.00000  968.11323  50.6%     -    1s
     0     0  970.14372    0  666 1958.00000  970.14372  50.5%     -    1s
     0     0  971.39657    0  697 1958.00000  971.39657  50.4%     -    1s
H    0     0                    1949.0000000  971.39657  50.2%     -    1s
     0     0  972.66718    0  737 1949.00000  972.66718  50.1%     -    1s
     0     0  972.81145    0  751 1949.00000  972.81145  50.1%     -    1s
     0     0  972.85193    0  724 1949.00000  972.85193  50.1%     -    1s
H    0     0                    1942.0000000  972.85193  49.9%     -    2s
H    0     0                    1918.0000000  972.85193  49.3%     -    2s
H    0     0                    1903.0000000  972.85193  48.9%     -    2s
H    0     0                    1902.0000000  972.85193  48.9%     -    2s
     0     0  982.15645    0  873 1902.00000  982.15645  48.4%     -    2s
H    0     0                    1894.0000000  982.15645  48.1%     -    2s
H    0     0                    1890.0000000  982.15645  48.0%     -    2s
     0     0  984.80085    0 1018 1890.00000  984.80085  47.9%     -    2s
     0     0  985.82397    0 1006 1890.00000  985.82397  47.8%     -    2s
     0     0  986.11662    0 1036 1890.00000  986.11662  47.8%     -    3s
     0     0  986.22860    0 1073 1890.00000  986.22860  47.8%     -    3s
H    0     0                    1884.0000000  986.22860  47.7%     -    4s
     0     0  991.80917    0 1196 1884.00000  991.80917  47.4%     -    4s
H    0     0                    1873.0000000  991.80917  47.0%     -    4s
H    0     0                    1864.0000000  991.80917  46.8%     -    5s
     0     0  993.52419    0 1338 1864.00000  993.52419  46.7%     -    5s
     0     0  994.39999    0 1391 1864.00000  994.39999  46.7%     -    6s
     0     0  994.68994    0 1417 1864.00000  994.68994  46.6%     -    6s
     0     0  994.78792    0 1414 1864.00000  994.78792  46.6%     -    6s
H    0     0                    1862.0000000  994.78792  46.6%     -    8s
     0     0  998.85375    0 1523 1862.00000  998.85375  46.4%     -    8s
     0     0 1001.46563    0 1632 1862.00000 1001.46563  46.2%     -   10s
H    0     0                    1858.0000000 1001.46563  46.1%     -   11s
H    0     0                    1839.0000000 1001.46563  45.5%     -   11s
H    0     0                    1838.0000000 1001.46563  45.5%     -   11s
     0     0 1002.47623    0 1688 1838.00000 1002.47623  45.5%     -   11s
H    0     0                    1822.0000000 1002.47623  45.0%     -   12s
     0     0 1002.85714    0 1706 1822.00000 1002.85714  45.0%     -   12s
H    0     0                    1808.0000000 1002.85714  44.5%     -   12s
     0     0 1003.02061    0 1761 1808.00000 1003.02061  44.5%     -   12s
H    0     0                    1794.0000000 1003.02061  44.1%     -   15s
     0     0 1005.33642    0 1937 1794.00000 1005.33642  44.0%     -   15s
H    0     0                    1787.0000000 1005.33642  43.7%     -   15s
     0     0 1006.51326    0 1975 1787.00000 1006.51326  43.7%     -   17s
     0     0 1007.07280    0 1985 1787.00000 1007.07280  43.6%     -   18s
     0     0 1007.63795    0 2087 1787.00000 1007.63795  43.6%     -   20s
     0     0 1007.86099    0 2091 1787.00000 1007.86099  43.6%     -   21s
     0     0 1010.32725    0 2204 1787.00000 1010.32725  43.5%     -   24s
     0     0 1012.27132    0 2189 1787.00000 1012.27132  43.4%     -   26s
     0     0 1013.65244    0 2258 1787.00000 1013.65244  43.3%     -   28s
     0     0 1014.37021    0 2310 1787.00000 1014.37021  43.2%     -   29s
     0     0 1014.73552    0 2301 1787.00000 1014.73552  43.2%     -   30s
     0     0 1014.97195    0 2351 1787.00000 1014.97195  43.2%     -   31s
     0     0 1017.52506    0 2426 1787.00000 1017.52506  43.1%     -   34s
     0     0 1019.48778    0 2317 1787.00000 1019.48778  42.9%     -   37s
     0     0 1020.97987    0 2497 1787.00000 1020.97987  42.9%     -   39s
     0     0 1021.57881    0 2531 1787.00000 1021.57881  42.8%     -   41s
     0     0 1021.98355    0 2550 1787.00000 1021.98355  42.8%     -   42s
     0     0 1022.24996    0 2561 1787.00000 1022.24996  42.8%     -   43s
     0     0 1024.84527    0 2602 1787.00000 1024.84527  42.6%     -   46s
     0     0 1025.64359    0 2640 1787.00000 1025.64359  42.6%     -   48s
     0     0 1026.09754    0 2650 1787.00000 1026.09754  42.6%     -   49s
     0     0 1026.37734    0 2679 1787.00000 1026.37734  42.6%     -   50s
     0     0 1026.89104    0 2709 1787.00000 1026.89104  42.5%     -   52s
     0     0 1026.89104    0 2707 1787.00000 1026.89104  42.5%     -   52s
     0     2 1026.89104    0 2706 1787.00000 1026.89104  42.5%     -   55s
     3     5 1027.22630    2 2727 1787.00000 1026.91620  42.5%  2433   60s

Cutting planes:
  Gomory: 88
  Cover: 1847
  Implied bound: 168
  Clique: 591
  MIR: 68
  StrongCG: 4
  Flow cover: 126
  GUB cover: 3
  Zero half: 25
  Relax-and-lift: 15

Explored 4 nodes (89058 simplex iterations) in 60.01 seconds
Thread count was 12 (of 12 available processors)

Solution count 10: 1787 1794 1808 ... 1873

Time limit reached
Best objective 1.787000000000e+03, best bound 1.027000000000e+03, gap 42.5294%

Gurobi 9.1.1 (win64) logging started Sun Apr 17 23:45:16 2022

Changed value of parameter LogFile to ./Log/Pattern_Appro_solver_200_order_20_batch.log
   Prev:   Default: 
Gurobi Optimizer version 9.1.1 build v9.1.1rc0 (win64)
Thread count: 6 physical cores, 12 logical processors, using up to 12 threads
Optimize a model with 1130 rows, 3960 columns and 15820 nonzeros
Model fingerprint: 0xff3dccd7
Variable types: 0 continuous, 3960 integer (3500 binary)
Coefficient statistics:
  Matrix range     [1e+00, 1e+01]
  Objective range  [1e+00, 4e+01]
  Bounds range     [1e+00, 7e+00]
  RHS range        [1e+00, 1e+01]
Found heuristic solution: objective 4626.0000000
Presolve removed 129 rows and 401 columns
Presolve time: 0.02s
Presolved: 1001 rows, 3559 columns, 13575 nonzeros
Variable types: 0 continuous, 3559 integer (3143 binary)

Root relaxation: objective 1.120748e+03, 4506 iterations, 0.07 seconds

    Nodes    |    Current Node    |     Objective Bounds      |     Work
 Expl Unexpl |  Obj  Depth IntInf | Incumbent    BestBd   Gap | It/Node Time

     0     0 1120.74762    0  200 4626.00000 1120.74762  75.8%     -    0s
H    0     0                    3139.0000000 1120.74762  64.3%     -    0s
H    0     0                    3132.0000000 1120.74762  64.2%     -    0s
H    0     0                    3131.0000000 1120.74762  64.2%     -    0s
H    0     0                    3116.0000000 1120.74762  64.0%     -    0s
H    0     0                    3109.0000000 1121.41429  63.9%     -    0s
H    0     0                    3073.0000000 1121.41429  63.5%     -    0s
H    0     0                    2901.0000000 1121.41429  61.3%     -    0s
H    0     0                    2774.0000000 1121.41429  59.6%     -    0s
H    0     0                    2738.0000000 1121.41429  59.0%     -    0s
     0     0 1183.68580    0  409 2738.00000 1183.68580  56.8%     -    0s
H    0     0                    2675.0000000 1183.68580  55.8%     -    0s
     0     0 1185.06484    0  417 2675.00000 1185.06484  55.7%     -    0s
     0     0 1185.08043    0  417 2675.00000 1185.08043  55.7%     -    0s
     0     0 1212.81531    0  551 2675.00000 1212.81531  54.7%     -    0s
H    0     0                    2650.0000000 1212.81531  54.2%     -    0s
H    0     0                    2642.0000000 1212.81531  54.1%     -    0s
H    0     0                    2618.0000000 1212.81531  53.7%     -    0s
     0     0 1218.05602    0  494 2618.00000 1218.05602  53.5%     -    0s
     0     0 1220.74684    0  483 2618.00000 1220.74684  53.4%     -    0s
H    0     0                    2610.0000000 1220.74684  53.2%     -    0s
     0     0 1220.80114    0  490 2610.00000 1220.80114  53.2%     -    0s
H    0     0                    2602.0000000 1220.80114  53.1%     -    0s
H    0     0                    2594.0000000 1220.80114  52.9%     -    0s
H    0     0                    2584.0000000 1220.80114  52.8%     -    0s
H    0     0                    2576.0000000 1220.80114  52.6%     -    0s
H    0     0                    2566.0000000 1220.80114  52.4%     -    0s
H    0     0                    2556.0000000 1220.80114  52.2%     -    0s
H    0     0                    2550.0000000 1220.80114  52.1%     -    0s
     0     0 1242.49757    0  709 2550.00000 1242.49757  51.3%     -    0s
H    0     0                    2540.0000000 1242.49757  51.1%     -    1s
     0     0 1249.97556    0  800 2540.00000 1249.97556  50.8%     -    1s
     0     0 1251.79534    0  768 2540.00000 1251.79534  50.7%     -    1s
H    0     0                    2533.0000000 1251.79534  50.6%     -    1s
     0     0 1252.24473    0  777 2533.00000 1252.24473  50.6%     -    1s
     0     0 1252.30987    0  773 2533.00000 1252.30987  50.6%     -    1s
H    0     0                    2530.0000000 1252.30987  50.5%     -    1s
H    0     0                    2512.0000000 1252.30987  50.1%     -    1s
     0     0 1264.17445    0 1019 2512.00000 1264.17445  49.7%     -    2s
H    0     0                    2510.0000000 1264.17445  49.6%     -    2s
H    0     0                    2478.0000000 1264.17445  49.0%     -    2s
     0     0 1269.04470    0 1073 2478.00000 1269.04470  48.8%     -    2s
     0     0 1270.72409    0 1147 2478.00000 1270.72409  48.7%     -    2s
H    0     0                    2456.0000000 1270.72409  48.3%     -    3s
     0     0 1271.16954    0 1156 2456.00000 1271.16954  48.2%     -    3s
     0     0 1271.45721    0 1230 2456.00000 1271.45721  48.2%     -    3s
     0     0 1271.52188    0 1218 2456.00000 1271.52188  48.2%     -    3s
H    0     0                    2448.0000000 1271.52188  48.1%     -    4s
H    0     0                    2440.0000000 1271.52188  47.9%     -    4s
     0     0 1279.35907    0 1323 2440.00000 1279.35907  47.6%     -    4s
H    0     0                    2430.0000000 1279.35907  47.4%     -    4s
     0     0 1282.46716    0 1339 2430.00000 1282.46716  47.2%     -    5s
     0     0 1283.66942    0 1435 2430.00000 1283.66942  47.2%     -    5s
H    0     0                    2429.0000000 1283.66942  47.2%     -    6s
     0     0 1284.25356    0 1394 2429.00000 1284.25356  47.1%     -    6s
     0     0 1284.63499    0 1433 2429.00000 1284.63499  47.1%     -    6s
     0     0 1284.81480    0 1445 2429.00000 1284.81480  47.1%     -    6s
     0     0 1289.89432    0 1643 2429.00000 1289.89432  46.9%     -    8s
H    0     0                    2422.0000000 1289.89432  46.7%     -    9s
     0     0 1292.06500    0 1752 2422.00000 1292.06500  46.7%     -    9s
     0     0 1293.13436    0 1748 2422.00000 1293.13436  46.6%     -   10s
     0     0 1293.55160    0 1806 2422.00000 1293.55160  46.6%     -   10s
     0     0 1293.74989    0 1829 2422.00000 1293.74989  46.6%     -   11s
H    0     0                    2419.0000000 1293.74989  46.5%     -   13s
H    0     0                    2415.0000000 1293.74989  46.4%     -   13s
     0     0 1297.74961    0 2024 2415.00000 1297.74961  46.3%     -   13s
H    0     0                    2408.0000000 1297.74961  46.1%     -   14s
     0     0 1299.76179    0 2060 2408.00000 1299.76179  46.0%     -   14s
H    0     0                    2402.0000000 1299.76179  45.9%     -   15s
     0     0 1300.94733    0 2145 2402.00000 1300.94733  45.8%     -   15s
     0     0 1301.58109    0 2187 2402.00000 1301.58109  45.8%     -   16s
     0     0 1302.03146    0 2221 2402.00000 1302.03146  45.8%     -   17s
     0     0 1302.29939    0 2198 2402.00000 1302.29939  45.8%     -   18s
     0     0 1305.56233    0 2328 2402.00000 1305.56233  45.6%     -   20s
     0     0 1307.62427    0 2442 2402.00000 1307.62427  45.6%     -   22s
H    0     0                    2394.0000000 1307.62427  45.4%     -   23s
     0     0 1308.80245    0 2523 2394.00000 1308.80245  45.3%     -   23s
     0     0 1309.61704    0 2522 2394.00000 1309.61704  45.3%     -   24s
     0     0 1310.10222    0 2544 2394.00000 1310.10222  45.3%     -   24s
     0     0 1310.27954    0 2581 2394.00000 1310.27954  45.3%     -   25s
     0     0 1312.89911    0 2621 2394.00000 1312.89911  45.2%     -   27s
     0     0 1313.54372    0 2639 2394.00000 1313.54372  45.1%     -   28s
     0     0 1313.91546    0 2671 2394.00000 1313.91546  45.1%     -   28s
     0     0 1316.01407    0 2718 2394.00000 1316.01407  45.0%     -   30s
     0     0 1316.01407    0 2715 2394.00000 1316.01407  45.0%     -   30s
     0     2 1316.01407    0 2715 2394.00000 1316.01407  45.0%     -   32s
     3     8 1317.11419    2 2711 2394.00000 1316.07528  45.0%  1492   35s
     7    14 1320.98654    3 2804 2394.00000 1317.13174  45.0%  3676   41s
    13    20 1325.84855    4 2887 2394.00000 1321.00464  44.8%  6709   48s
    19    26 1327.98213    5 2868 2394.00000 1321.00464  44.8%  8008   53s
    25    32 1330.90565    6 2808 2394.00000 1321.00464  44.8%  7184   56s
    43    45 1391.67825    8 2776 2394.00000 1321.00464  44.8%  5441   60s

Cutting planes:
  Gomory: 78
  Cover: 2432
  Implied bound: 134
  Clique: 800
  MIR: 119
  StrongCG: 5
  Flow cover: 148
  GUB cover: 2
  Zero half: 33
  Relax-and-lift: 25

Explored 44 nodes (304900 simplex iterations) in 60.01 seconds
Thread count was 12 (of 12 available processors)

Solution count 10: 2394 2402 2408 ... 2448

Time limit reached
Best objective 2.394000000000e+03, best bound 1.322000000000e+03, gap 44.7786%
